data;

param w := 30;
param n := 28;
param min_h := 60;
param max_h := 98;

set BLOCKS := 1 2 3 4 5 6 7 8 9 10 11 12 13 14 15 16 17 18 19 20 21 22 23 24 25 26 27 28 ;

param:	width	height :=
	1	13	21
	2	11	17
	3	11	14
	4	8	14
	5	5	21
	6	5	18
	7	5	18
	8	11	7
	9	4	18
	10	5	14
	11	5	14
	12	3	21
	13	3	18
	14	3	17
	15	11	4
	16	7	6
	17	5	7
	18	8	4
	19	4	7
	20	2	12
	21	3	7
	22	5	4
	23	4	5
	24	3	5
	25	5	3
	26	2	6
	27	4	3
	28	3	4;